Maximize
 obj: -150 p1 + -100 p2

Subject To

 c1: - p1 + 3 a + 5 b + 2 c <= 0
 c2: - p2 + 1 a + 3 b + 3 c <= 0
 c3: - p1 + 3 a + 5 b + 2 c >= 0
 c4: - p2 + 1 a + 3 b + 3 c >= 0
 c5: a >= 1200
 c6: b >= 3000
 c7: c >= 1800
Bounds

 0 <= p1
 0 <= p2
End